Academic license - for non-commercial use only - expires 2022-11-10
Using license file /home/benedond/Apps/gurobi/gurobi950/gurobi.lic
Using gurobi.env file
Set parameter Threads to value 1
Changed value of parameter TimeLimit to 1200.0
   Prev: inf  Min: 0.0  Max: inf  Default: inf
Gurobi Optimizer version 9.1.2 build v9.1.2rc0 (linux64)
Thread count: 2 physical cores, 4 logical processors, using up to 1 threads
Optimize a model with 1510 rows, 1384 columns and 6638 nonzeros
Model fingerprint: 0xc0d95acc
Variable types: 50 continuous, 1334 integer (1334 binary)
Coefficient statistics:
  Matrix range     [2e-01, 4e+02]
  Objective range  [1e-02, 4e-01]
  Bounds range     [1e+00, 1e+00]
  RHS range        [1e+00, 1e+03]
Presolve removed 159 rows and 70 columns
Presolve time: 0.03s
Presolved: 1351 rows, 1314 columns, 6214 nonzeros
Variable types: 49 continuous, 1265 integer (1265 binary)

Root relaxation: objective 2.189515e+00, 1502 iterations, 0.03 seconds

    Nodes    |    Current Node    |     Objective Bounds      |     Work
 Expl Unexpl |  Obj  Depth IntInf | Incumbent    BestBd   Gap | It/Node Time

     0     0    2.18952    0  151          -    2.18952      -     -    0s
     0     0    2.33719    0  149          -    2.33719      -     -    0s
     0     0    2.34191    0  166          -    2.34191      -     -    0s
     0     0    2.43417    0  144          -    2.43417      -     -    0s
H    0     0                       4.7473558    2.43417  48.7%     -    0s
H    0     0                       4.5329231    2.43417  46.3%     -    0s
H    0     0                       4.2636731    2.43417  42.9%     -    0s
     0     0    2.44265    0  144    4.26367    2.44265  42.7%     -    0s
     0     0    2.52173    0  159    4.26367    2.52173  40.9%     -    0s
H    0     0                       3.4781539    2.52173  27.5%     -    0s
H    0     0                       3.4674519    2.52173  27.3%     -    0s
     0     0    2.55125    0  158    3.46745    2.55125  26.4%     -    0s
     0     0    2.56244    0  125    3.46745    2.56244  26.1%     -    0s
     0     0    2.56458    0  115    3.46745    2.56458  26.0%     -    0s
     0     0    2.56613    0  169    3.46745    2.56613  26.0%     -    0s
     0     0    2.56692    0  154    3.46745    2.56692  26.0%     -    0s
     0     0    2.56723    0  146    3.46745    2.56723  26.0%     -    0s
     0     0    2.56729    0  140    3.46745    2.56729  26.0%     -    0s
     0     0    2.62650    0  145    3.46745    2.62650  24.3%     -    0s
     0     0    2.64259    0  172    3.46745    2.64259  23.8%     -    0s
     0     0    2.64357    0  169    3.46745    2.64357  23.8%     -    0s
     0     0    2.64379    0  167    3.46745    2.64379  23.8%     -    0s
     0     0    2.66936    0  133    3.46745    2.66936  23.0%     -    0s
     0     0    2.67218    0  193    3.46745    2.67218  22.9%     -    0s
     0     0    2.67302    0  157    3.46745    2.67302  22.9%     -    0s
     0     0    2.67345    0  153    3.46745    2.67345  22.9%     -    0s
     0     0    2.67373    0  178    3.46745    2.67373  22.9%     -    0s
     0     0    2.68295    0  180    3.46745    2.68295  22.6%     -    0s
     0     0    2.68447    0  214    3.46745    2.68447  22.6%     -    0s
     0     0    2.68468    0  182    3.46745    2.68468  22.6%     -    0s
     0     0    2.70103    0  171    3.46745    2.70103  22.1%     -    0s
H    0     0                       3.3895096    2.70103  20.3%     -    0s
     0     0    2.70227    0  188    3.38951    2.70227  20.3%     -    0s
     0     0    2.70245    0  169    3.38951    2.70245  20.3%     -    0s
     0     0    2.71123    0  151    3.38951    2.71123  20.0%     -    0s
H    0     0                       3.3049135    2.71123  18.0%     -    0s
     0     0    2.71354    0  156    3.30491    2.71354  17.9%     -    0s
     0     0    2.71465    0  192    3.30491    2.71465  17.9%     -    0s
     0     0    2.71477    0  205    3.30491    2.71477  17.9%     -    0s
     0     0    2.72012    0  197    3.30491    2.72012  17.7%     -    1s
     0     0    2.72101    0  183    3.30491    2.72101  17.7%     -    1s
     0     0    2.72191    0  184    3.30491    2.72191  17.6%     -    1s
     0     0    2.72205    0  201    3.30491    2.72205  17.6%     -    1s
     0     0    2.72807    0  199    3.30491    2.72807  17.5%     -    1s
H    0     0                       3.2977789    2.72807  17.3%     -    1s
     0     0    2.72911    0  197    3.29778    2.72911  17.2%     -    1s
     0     0    2.72935    0  170    3.29778    2.72935  17.2%     -    1s
     0     0    2.73402    0  198    3.29778    2.73402  17.1%     -    1s
     0     0    2.73670    0  188    3.29778    2.73670  17.0%     -    1s
     0     0    2.73710    0  152    3.29778    2.73710  17.0%     -    1s
     0     0    2.74057    0  176    3.29778    2.74057  16.9%     -    1s
     0     0    2.74215    0  167    3.29778    2.74215  16.8%     -    1s
     0     0    2.74237    0  173    3.29778    2.74237  16.8%     -    1s
     0     0    2.74478    0  194    3.29778    2.74478  16.8%     -    1s
     0     0    2.74478    0  194    3.29778    2.74478  16.8%     -    1s
     0     2    2.74495    0  192    3.29778    2.74495  16.8%     -    1s
H   79    65                       3.2657692    2.74527  15.9%   129    2s
H  163   128                       3.2551250    2.74584  15.6%   139    4s
H  237   184                       3.1801058    2.74584  13.7%   132    5s
   523   360    3.07199   26  211    3.18011    2.77502  12.7%   134   10s
   584   401    2.99311   23  190    3.18011    2.84833  10.4%   120   15s
   626   432    2.89746   26  173    3.18011    2.85988  10.1%   154   20s
   757   486     cutoff   32         3.18011    2.87818  9.49%   167   25s
  1078   581    3.00117   56  111    3.18011    2.88506  9.28%   166   30s
  1440   676    3.13419   75   86    3.18011    2.90246  8.73%   159   35s
  1912   756    2.96524   58   99    3.18011    2.91798  8.24%   153   40s
H 1914   752                       3.1734135    2.91798  8.05%   153   40s
H 2030   802                       3.1619327    2.92029  7.64%   151   41s
H 2177   717                       3.1204904    2.92111  6.39%   151   43s
  2268   740    2.99918   64   88    3.12049    2.92501  6.26%   152   45s
  2692   869    3.04342   55  142    3.12049    2.93502  5.94%   152   50s
  3195  1037    3.09995   54   90    3.12049    2.94156  5.73%   149   55s
  3669  1157    3.08436   37   56    3.12049    2.95562  5.28%   148   60s
H 3679  1125                       3.1146058    2.95562  5.10%   148   60s
  4139  1170    3.06347   68   64    3.11461    2.96564  4.78%   147   65s
  4629  1286    3.06580   47  103    3.11461    2.97414  4.51%   146   70s
H 4710  1277                       3.1076827    2.97543  4.26%   145   70s
  5050  1362     cutoff   40         3.10768    2.98175  4.05%   145   75s
  5510  1416    3.04373   39  151    3.10768    2.99018  3.78%   145   80s
  5941  1417    3.08626   40  102    3.10768    2.99824  3.52%   146   85s
  6402  1465    3.10564   44   85    3.10768    3.00402  3.34%   146   90s
  6872  1443     cutoff   37         3.10768    3.01448  3.00%   146   95s
  7133  1387    3.07287   48   87    3.10768    3.01997  2.82%   146  100s
  7570  1316    3.09788   55  104    3.10768    3.03019  2.49%   146  105s
  8050  1172    3.04249   51  125    3.10768    3.03952  2.19%   145  110s
  8510  1069    3.10127   40   72    3.10768    3.04824  1.91%   145  115s
  9175   829    3.08225   58   87    3.10768    3.06177  1.48%   142  120s
  9968   488    3.10226   54  106    3.10768    3.07926  0.91%   138  125s

Cutting planes:
  Gomory: 4
  Cover: 97
  Implied bound: 6
  Clique: 6
  MIR: 234
  StrongCG: 2
  Flow cover: 459
  Mod-K: 2
  RLT: 20
  Relax-and-lift: 218

Explored 10598 nodes (1421178 simplex iterations) in 127.93 seconds
Thread count was 1 (of 4 available processors)

Solution count 10: 3.10768 3.11461 3.12049 ... 3.30491

Optimal solution found (tolerance 1.00e-04)
Best objective 3.107682711158e+00, best bound 3.107394623160e+00, gap 0.0093%
